Sphere-mesh 2
15 13 3
1.40816 -7.2621 5.86044 1.74063
0.266908 0.130338 3.14889 3.18853
0.485565 -4.78412 3.07045 3.32723
-4.92031 24.1032 3.05595 4.88377
-0.792348 3.44069 3.1823 2.75566
-2.55605 -12.6168 0.831546 1.98731
0.461894 0.413945 1.36806 1.75101
-7.41146 30.7513 2.06936 4.49288
-0.288196 -2.44502 3.1126 2.70045
-2.11348 -12.2125 3.66233 2.14016
6.19275 -1.00763 3.19279 2.82753
-5.52786 -15.4295 0.622785 1.24479
-6.51214 -16.0268 2.09554 1.17496
-1.21716 -11.6896 6.47681 1.60874
-5.04343 -15.1895 5.48856 1.04793
0 2 10
2 8 9
5 9 12
1 2 8
5 11 12
1 2 10
1 4 10
0 2 13
2 9 13
9 12 14
9 13 14
0 2 8
2 5 9
3 4
3 7
4 6
